   1.0135455555514577E-003
VARIABLES = TIME,e11,e22,e33,e12,e13,e23,s11,s22,s33,s12,s13,s23
